51959.0
165, 249, 303, 349, 380, 426, 471, 596, 670, 676, 781, 1191, 1379, 1476, 2041, 2354, 2490, 2499, 2857, 2976, 2997, 3112, 3126, 3177, 3222, 3244, 3259, 3266, 3348, 3469, 3471, 3676, 3739, 3905, 4091, 4210, 4245, 4358, 4642, 4753, 4824, 4912, 4935, 5004, 5395, 5450, 5463, 5565, 5574, 5631, 5637, 5767, 5776, 5780, 5907, 5951, 6118, 6210, 6273, 6281, 6542, 6561, 6575, 6593, 6594, 6645, 6710, 6741, 6828, 6835, 6842, 6978, 7013, 7038, 7243, 7500, 7660, 7696, 7910, 7983, 8111, 8220, 8247, 8811, 8843, 8857, 8859, 9317, 9394, 9640, 9704